words_hard_train/4432.qaiger
aag 57 14 0 1 43
2
4
8
12
16
24
36
48
56
66
82
84
88
92
115
6 3 5
10 6 9
14 10 13
18 15 16
20 14 17
22 19 21
26 23 25
28 22 24
30 27 29
32 11 12
34 33 15
38 35 37
40 34 36
42 39 41
44 7 8
46 45 11
50 47 49
52 46 48
54 51 53
58 57 4
60 56 5
62 59 61
64 62 3
68 66 2
70 65 69
72 63 67
74 70 73
76 54 74
78 42 76
80 30 78
86 83 85
90 86 89
94 21 92
96 90 95
98 20 93
100 96 99
102 82 84
104 102 94
106 98 86
108 105 107
110 109 88
112 101 111
114 80 113
i0 1 x2[0]
i1 1 x2[1]
i2 1 x2[2]
i3 1 x2[3]
i4 1 x2[4]
i5 2 y1[6]
i6 2 y1[5]
i7 2 y1[4]
i8 2 y1[3]
i9 2 y1[2]
i10 1 x2[7]
i11 1 x2[6]
i12 2 y1[7]
i13 1 x2[5]
o0 bool[0]
c
simplified
  !=
    >> 2
      2 y1
    subtract
      and
        1 x2
        1 x2
      1
