words_hard_train/4432.qaiger.qdimacs
p cnf 57 130
a 1 2 4 6 8 41 42 46 0
e 3 5 7 9 10 11 12 13 14 15 16 17 18 19 20 21 22 23 24 25 26 27 28 29 30 31 32 33 34 35 36 37 38 39 40 43 44 45 47 48 49 50 51 52 53 54 55 56 57 0
1 2 3 0
-1 -3 0
-2 -3 0
-3 4 5 0
3 -5 0
-4 -5 0
-5 6 7 0
5 -7 0
-6 -7 0
7 -8 9 0
-7 -9 0
8 -9 0
-7 8 10 0
7 -10 0
-8 -10 0
9 10 11 0
-9 -11 0
-10 -11 0
11 12 13 0
-11 -13 0
-12 -13 0
-11 -12 14 0
11 -14 0
12 -14 0
13 14 15 0
-13 -15 0
-14 -15 0
5 -6 16 0
-5 -16 0
6 -16 0
16 7 17 0
-16 -17 0
-7 -17 0
17 18 19 0
-17 -19 0
-18 -19 0
-17 -18 20 0
17 -20 0
18 -20 0
19 20 21 0
-19 -21 0
-20 -21 0
3 -4 22 0
-3 -22 0
4 -22 0
22 5 23 0
-22 -23 0
-5 -23 0
23 24 25 0
-23 -25 0
-24 -25 0
-23 -24 26 0
23 -26 0
24 -26 0
25 26 27 0
-25 -27 0
-26 -27 0
28 -2 29 0
-28 -29 0
2 -29 0
-28 2 30 0
28 -30 0
-2 -30 0
29 30 31 0
-29 -31 0
-30 -31 0
-31 1 32 0
31 -32 0
-1 -32 0
-33 -1 34 0
33 -34 0
1 -34 0
32 34 35 0
-32 -35 0
-34 -35 0
31 33 36 0
-31 -36 0
-33 -36 0
-35 36 37 0
35 -37 0
-36 -37 0
-27 -37 38 0
27 -38 0
37 -38 0
-21 -38 39 0
21 -39 0
38 -39 0
-15 -39 40 0
15 -40 0
39 -40 0
41 42 43 0
-41 -43 0
-42 -43 0
-43 44 45 0
43 -45 0
-44 -45 0
10 -46 47 0
-10 -47 0
46 -47 0
-45 47 48 0
45 -48 0
-47 -48 0
-10 46 49 0
10 -49 0
-46 -49 0
-48 49 50 0
48 -50 0
-49 -50 0
-41 -42 51 0
41 -51 0
42 -51 0
-51 -47 52 0
51 -52 0
47 -52 0
-49 -43 53 0
49 -53 0
43 -53 0
52 53 54 0
-52 -54 0
-53 -54 0
54 -44 55 0
-54 -55 0
44 -55 0
50 55 56 0
-50 -56 0
-55 -56 0
-40 56 57 0
40 -57 0
-56 -57 0
-57 0
